#ATOM/BOND/ANGLE lists used for generating force field;

pair_style      cg/cmm 15.0
bond_style      harmonic
angle_style     harmonic
special_bonds  lj       0.0 0.0 1.0

mass    1       #   D1
mass    2       #   D2

bond_coeff    1     #   D1   D1
bond_coeff    2     #   D1   D2
bond_coeff    3     #   D2   D2

